
! Some keywords for automatic output
! ----------------------------------
CAMPAIGN 0
  ## widget = initmenu; pointer = ACTIVE_CAMPAIGN

SESSION_TABLE 0
  ## widget = initmenu; pointer = SESSION_TABLE

DESCR_SESSION_TABLE 1  "Session table"

YR4_INFO 0
  ## widget = comment
  # $Y+0

SES_INFO 0
  ## widget = comment
  # $S+0

USR_INFO 1  "${USER}"
  ## widget = comment

! Environment Variables
! ---------------------
ENVIRONMENT 0
  ## widget = initmenu; pointer = ENVIR_LIST

! General Constants
! -----------------
SHOWGEN 1  "1"
  ## widget = checkbox

MSG_SHOWGEN 1  "Show all general files"

CONST 0
  ## widget = selwin; path = PTH_CONST; ext = EXT_CONST; maxfiles = 1
  # CONST

DESCR_CONST 1  "General constants"

! Satellite Information
! ---------------------
SATELL 0
  ## widget = selwin; path = PTH_SATELL; ext = EXT_SATELL; maxfiles = 1
  # $(SATINF)_$(PCV)

DESCR_SATELL 1  "Satellite information"

! Observation selection
! --------------------
OBSSEL 0
  ## widget = selwin; path = PTH_OBSSEL; ext = EXT_OBSSEL; maxfiles = 1
  ## emptyallowed = true
  # $(OBSSEL)

DESCR_OBSSEL 1  "Observation selection"

! Title
! -----
TITLE 0
  ## widget = lineedit
  # RNX2SNX_$YYYSS+0: Conversion from ANTEX to Bernese PCV

MSG_TITLE 1  "Title line"

! Input File: External Phase Center File (ANTEX file)
! --------------------------------------
PHASEXT 0
  ## widget = selwin; path = DIR_OUT; ext = NO_EXT
  # $(MYATX)

DESCR_PHASEXT 1  "External phase center corrections"

! Conversion abs2rel
! ------------------
ABS2REL 1  "0"
  ## widget = checkbox

MSG_ABS2REL 1  "Conversion of absolute phase patterns"

! Input File: Bernese phase file
! ------------------------------
PHASECC 0
  ## widget = selwin; path = PTH_PHASECC; ext = EXT_PHASECC
  ## emptyallowed = true
  # $(PCVINF)_$(PCV)

DESCR_PHASECC 1  "Input Bernese antenna correction file"

! Input File: Station information file
! ------------------------------------
STAINFO 0
  ## widget = selwin; path = DIR_STA; ext = EXT_STA; emptyallowed = true
  ## maxfiles = 1
  # $(STAINF)

DESCR_STAINFO 1  "Station information"

! Conversion
! ----------
CONVERT 1  "0"
  ## widget = checkbox; activeif = PHASECC /= _ AND ABS2REL /= 1

MSG_CONVERT 1  "Conversion of relative phase pattern"

! Bernese Phase Center File
! -------------------------
PHASRSG 0
  ## widget = lineedit; path = DIR_PHG; ext = EXT_PHG
  # $(PCVINF)

DESCR_PHASRSG 1  "Bernese antenna correction file"

! Program Output File
! -------------------
SYSODEF 1  "0"
  ## widget = checkbox

MSG_SYSODEF 1  "Program output"

SYSOUT 0
  ## widget = lineedit; path = DIR_OUT; ext = EXT_OUT
  ## activeif = SYSODEF == 0; emptyallowed = false
  # ATX2PCV

DESCR_SYSOUT 1  "Program output"

! Error Message File
! ------------------
ERRMRG 1  "0"
  ## widget = checkbox

MSG_ERRMRG 1  "Error message"

SYSERR 0
  ## widget = lineedit; path = PTH_ERR; ext = EXT_ERR
  ## activeif = ERRMRG == 0; emptyallowed = false
  # ERROR

DESCR_SYSERR 1  "Error message"

! Subroutine/function debug output
! --------------------------------
DEBUG_STKLOG 0
  ## widget = lineedit; path = PTH_DBG; ext = EXT_DBG; maxfiles = 1
  ## emptyallowed = true

DESCR_DEBUG_STKLOG 1  "Debug stack log output"

DEBUG_SUMMARY 0
  ## widget = lineedit; path = PTH_DBG; ext = EXT_DBG; maxfiles = 1
  ## emptyallowed = true

DESCR_DEBUG_SUMMARY 1  "Debug summary output"

DEBUG_INTERVAL 1  "00 01 00"
  ## widget = lineedit; check_type = time

MSG_DEBUG_INTERVAL 1  "Interval for intermediate debug summary"

! -------------------------------------------------------------------------
! Debugging mode
! --------------
DEBUG 1  "0"

MSG_DEBUG 1  "Debugging mode"

! Do not write zero patterns
! --------------------------
NOZERO 1  "1"
  ## widget = checkbox

MSG_NOZERO 1  "Do not write zero patterns"

! Consider antennas without radome code
! -------------------------------------
RADCOD 1  "1"
  ## widget = checkbox; activeif = PHASECC /= _

MSG_RADCOD 1  "Consider antennas without radome code"

! ANTEX Conversion
! ================
!
! Fill Pattern
! ------------
ATXFIL 1  "1"
  ## widget = checkbox

MSG_ATXFIL 1  "Special handling of missing values"

! Maximum zenith angle
! --------------------
MXFZEN 1  "90"
  ## widget = spinbox; range = 0 90 5; activeif = ATXFIL = 1

MSG_MXFZEN 1  "Fill missing values up to a MAXIMUM ZENITH ANGLE of"

! Fill missing values for receiver antennas
! -----------------------------------------
FILREC 1  "LAST_VALUE"
  ## widget = combobox; editable = false; cards = ZEROS LAST_VALUE AOAD/M_T
  ## activeif = ATXFIL = 1

MSG_FILREC 1  "Fill missing values for receiver antennas"

! Maximum nadir angle
! -------------------
MXFNAD 1  "17"
  ## widget = spinbox; range = 0 20 1; activeif = ATXFIL = 1

MSG_MXFNAD 1  "Fill missing values up to a MAXIMUM NADIR ANGLE of"

! Fill missing values for satellite antennas
! ------------------------------------------
FILSAT 1  "LAST_VALUE"
  ## widget = combobox; editable = false; cards = ZEROS LAST_VALUE
  ## activeif = ATXFIL = 1

MSG_FILSAT 1  "Fill missing values for satellite antennas"

! Fill missing values for indiv. receiver antennas
! ------------------------------------------------
FILINDV 1  "GROUP_VALUES"
  ## widget = combobox; editable = false
  ## cards = GPS_VALUES GROUP_VALUES GROUP_DIFF
  ## activeif = ATXFIL = 1 AND OBSSEL /= _

MSG_FILINDV 1  "Fill missing values for individual antennas"

! Priority on calibration methods
! -------------------------------
ATXPRIOR 1  "CHAMBER"
  ## widget = combobox; editable = false; cards = CHAMBER ROBOT LATEST

MSG_ATXPRIOR 1  "Choose the calibration method with the highest priority"

! ONLY ELEVATION DEPENDENT PATTERNS
! ---------------------------------
ONLYELE 1  "0"
  ## widget = checkbox

MSG_ONLYELE 1  "Only elevation dependent patterns required"

! CONSIDER GPS VALUES ONLY
! ------------------------
ONLYGPS 1  "0"
  ## widget = checkbox

MSG_ONLYGPS 1  "Consider GPS values only"

! SET ANTENNA NUMBER TO 999999
! ----------------------------
ANTNUM 1  "0"
  ## widget = checkbox

MSG_ANTNUM 1  "Set number of generic antennas to 999999"

! Satellite System Selection
! --------------------------
! GPS
USE_G 1  "1"
  ## widget = checkbox

MSG_USE_G 1  "Write antenna corrections for GPS"

! GLONASS
USE_R 1  "1"
  ## widget = checkbox

MSG_USE_R 1  "Write antenna corrections for GLONASS"

! Galileo
USE_E 1  "1"
  ## widget = checkbox

MSG_USE_E 1  "Write antenna corrections for Galileo"

! SBAS
USE_S 1  "1"
  ## widget = checkbox

MSG_USE_S 1  "Write antenna corrections for SBAS"

! BeiDou
USE_C 1  "1"
  ## widget = checkbox

MSG_USE_C 1  "Write antenna corrections for BeiDou"

! QZSS
USE_J 1  "1"
  ## widget = checkbox

MSG_USE_J 1  "Write antenna corrections for QZSS"


# BEGIN_PANEL NO_CONDITION #####################################################
# CONVERT ANTEX TO BERNESE FORMAT - ATX2PCV 1: Input                           #
#                                                                              #
# GENERAL FILES                                                                #
#   Show all general files             > % <                                   # SHOWGEN
#                                                                              #
# INPUT FILENAMES                                                              #
#   External antenna corrections       > %%%%%%%%%%%% <                        # PHASEXT
#   Bernese antenna correction file    > %%%%%%%%%%%% <                        # PHASECC
#   Station information                > %%%%%%%%%%%% <                        # STAINFO
#                                                                              #
# OPTIONS FOR BERNESE INPUT FILE                                               #
#   Consider antennas without radome code     > % <                            # RADCOD
#                                                                              #
# RESULT FILE                                                                  #
#   Bernese antenna corrections file   > %%%%%%%% <                               # PHASRSG
#                                                                              #
# GENERAL OUTPUT FILES                                                         #
#   Program output       > % < use ATX2PCV.Lnn           or   > %%%%%%%%%%%% < # SYSODEF SYSOUT
#   Error messages       > % < merged to program output  or   > %%%%%%%%%%%% < # ERRMRG SYSERR
#                                                                              #
# TITLE > %%%%%%%%%%%%%%%%%%%%%%%%%%%%%%%%%%%%%%%%%%%%%%%%%%%%%%%%%%%%%%%% <   # TITLE
#                                                                              #
# END_PANEL ####################################################################


# BEGIN_PANEL SHOWGEN = 1  #####################################################
# ATX2PCV 1.1: General Files                                                   #
#                                                                              #
# GENERAL INPUT FILES                                                          #
#   General constants       > %%%%%%%%%%%% <                                   # CONST
#   Satellite information   > %%%%%%%%%%%% <                                   # SATELL
#   Observation selection   > %%%%%%%%%%%% <                                   # OBSSEL
#                                                                              #
# MENU SETTINGS                                                                #
#   Selected campaign       > %%%%%%%%%%%%%%%%%%%%%%%%%%%%%%%%%%%%%%%%%%%% <   # CAMPAIGN
#   Selected session          year> %%%% <  session> %%%% <                    # YR4_INFO SES_INFO
#   Session table           > %%%%%%%%%%%%%%%%%%%%%%%%%%%%%%%%%%%%%%%%%%%% <   # SESSION_TABLE
#                                                                              #
# END_PANEL ####################################################################


# BEGIN_PANEL NO_CONDITION #####################################################
# ATX2PCV 2: ANTEX Conversion                                                  #
#                                                                              #
# GNSS SELECTION FOR THE OUTPUT FILE                                           #
#          > % < GPS            > % < GLONASS        > % < Galileo             # USE_G USE_R USE_E
#          > % < SBAS           > % < BeiDou         > % < QZSS                # USE_S USE_C USE_J
#                                                                              #
# MISSING RECEIVER AND SATELLITE ANTENNA PATTERNS                              #
#   Special handling of missing values                 > % <                   # ATXFIL
#                                                                              #
#   Fill missing values up to a MAXIMUM ZENITH ANGLE of> %% <  degrees         # MXFZEN
#   with > %%%%%%%%%% <                                                        # FILREC
#                                                                              #
#   Fill missing values up to a MAXIMUM NADIR ANGLE of > %% <  degrees         # MXFNAD
#   with > %%%%%%%%%% <                                                        # FILSAT
#                                                                              #
#   Fill missing system values for individually calibrated receiver antennas   #
#   with > %%%%%%%%%% <                                                        # FILINDV
#                                                                              #
# OPTIONS                                                                      #
#   Choose the calibration method with the highest priority > %%%%%%%% <       # ATXPRIOR
#   Do not write zero patterns                              > % <              # NOZERO
#   Set number of generic receiver antennas to 999999       > % <              # ANTNUM
#     (to be used for individual antenna calibrations)                         #
#   Elevation dependent receiver patterns only              > % <              # ONLYELE
#   Consider GPS values only                                > % <              # ONLYGPS
#                                                                              #
################################################################################
