
! Environment Variables
! ---------------------
ENVIRONMENT 0
  ## widget = initmenu; pointer = ENVIR_LIST

! SOME KEYWORDS FOR AUTOMATIC OUTPUT
! ----------------------------------
CAMPAIGN 1  "./DUMMY"
  ## widget = initmenu; pointer = ACTIVE_CAMPAIGN

SESSION_TABLE 1  "${PAN}/SESSIONS.SES"
  ## widget = initmenu; pointer = SESSION_TABLE

DESCR_SESSION_TABLE 1  "Session table"

YR4_INFO 0
  ## widget = comment
  # $Y+0

SES_INFO 0
  ## widget = comment
  # $S+0

USR_INFO 1  "${USER}"
  ## widget = comment

! -------------------------------------------------------------------------
! Setup Springer model instead of usual RPR model
! -----------------------------------------------
ITIM 1  "0"
  ## widget = checkbox

MSG_ITIM 1  "Setup Springer model instead of usual RPR model"

! Input Precise Files
! -------------------
RADIO_P 1  "1"
  ## widget = radiobutton; group = GENUPD

MSG_RADIO_P 1  "Start with precise orbits"

PREFIL 0
  ## widget = selwin; activeif = RADIO_P = 1; path = DIR_PRE; ext = EXT_PRE
  # $(ORB)_$YYYSS+0

MSG_PREFIL 1  "Start with precise orbits"

! Extension of the ERP Files
! --------------------------
PREFIL_EXT_COL_2 1  "ERP"
  ## widget = initmenu; pointer = EXT_ERP

! Extension of the ERP Files
! --------------------------
PREFIL_PTH_COL_2 1  "./DUMMY/ORB/"
  ## widget = initmenu; pointer = DIR_ERP

! Use general ERP file
! ---------------------
GENPOLE 1  "0"
  ## widget = checkbox; activeif = RADIO_P = 1

MSG_GENPOLE 1  "Use with general ERP file"

! Update Modus
! ------------
NEWOLD 1  "NEW"
  ## widget = combobox; editable = false; cards = NEW OLD

MSG_NEWOLD 1  "SELECTION OF ORBITAL ELEMENTS"

! -----------------------------------------
!
! PARAMETER TYPE: Satellite yaw attitude
! ===============
!
! -----------------------------------------
!
! True yaw attitude modelling of satellites
! -----------------------------------------
TRUEATTI 1  "1"
  ## widget = checkbox

MSG_TRUEATTI 1  "True yaw attitude modelling of satellites"

BETAOUT 1  "0"
  ## widget = checkbox

MSG_BETAOUT 1  "Print beta angle and attitude switch info to STDOUT"

PRINTYAW 1  "0"
  ## widget = checkbox

MSG_PRINTYAW 1  "Print yaw angle"

! Estimated Parameters
! --------------------
PAR1 1  "1"
  ## widget = checkbox; activeif = DEFPAR == 0 OR PLATDEF == _

MSG_PAR1 1  "Parameter 1 of an empirical model for GNSS"

PAR2 1  "1"
  ## widget = checkbox; activeif = DEFPAR == 0 OR PLATDEF == _

MSG_PAR2 1  "Parameter 2 of an empirical model for GNSS"

PAR3 1  "1"
  ## widget = checkbox; activeif = DEFPAR == 0 OR PLATDEF == _

MSG_PAR3 1  "Parameter 3 of an empirical model for GNSS"

PAR4 1  "1"
  ## widget = checkbox; activeif = DEFPAR == 0 OR PLATDEF == _

MSG_PAR4 1  "Parameter 4 of an empirical model for GNSS"

PAR5 1  "1"
  ## widget = checkbox; activeif = DEFPAR == 0 OR PLATDEF == _

MSG_PAR5 1  "Parameter 5 of an empirical model for GNSS"

PAR6 1  "1"
  ## widget = checkbox; activeif = DEFPAR == 0 OR PLATDEF == _

MSG_PAR6 1  "Parameter 6 of an empirical model for GNSS"

PAR7 1  "1"
  ## widget = checkbox; activeif = DEFPAR == 0 OR PLATDEF == _

MSG_PAR7 1  "Parameter 7 of an empirical model for GNSS"

PAR8 1  "1"
  ## widget = checkbox; activeif = DEFPAR == 0 OR PLATDEF == _

MSG_PAR8 1  "Parameter 8 of an empirical model for GNSS"

PAR9 1  "1"
  ## widget = checkbox; activeif = DEFPAR == 0 OR PLATDEF == _

MSG_PAR9 1  "Parameter 9 of an empirical model for GNSS"

! Scaling factors for printing purposes
! -------------------------------------
SCL1 1  "1.0E+7"
  ## widget = lineedit; check_type = real; check_min = 1.0
  ## activeif = PAR1 == 1

MSG_SCL1 1  "Scaling factor of PAR_1 (for output)"

SCL2 1  "1.0E+7"
  ## widget = lineedit; check_type = real; check_min = 1.0
  ## activeif = PAR2 == 1

MSG_SCL2 1  "Scaling factor of PAR_2 (for output)"

SCL3 1  "1.0E+7"
  ## widget = lineedit; check_type = real; check_min = 1.0
  ## activeif = PAR3 == 1

MSG_SCL3 1  "Scaling factor of PAR_3 (for output)"

SCL4 1  "1.0E+7"
  ## widget = lineedit; check_type = real; check_min = 1.0
  ## activeif = PAR4 == 1

MSG_SCL4 1  "Scaling factor of PAR_4 (for output)"

SCL5 1  "1.0E+7"
  ## widget = lineedit; check_type = real; check_min = 1.0
  ## activeif = PAR5 == 1

MSG_SCL5 1  "Scaling factor of PAR_5 (for output)"

SCL6 1  "1.0E+7"
  ## widget = lineedit; check_type = real; check_min = 1.0
  ## activeif = PAR6 == 1

MSG_SCL6 1  "Scaling factor of PAR_6 (for output)"

SCL7 1  "1.0E+7"
  ## widget = lineedit; check_type = real; check_min = 1.0
  ## activeif = PAR7 == 1

MSG_SCL7 1  "Scaling factor of PAR_7 (for output)"

SCL8 1  "1.0E+7"
  ## widget = lineedit; check_type = real; check_min = 1.0
  ## activeif = PAR8 == 1

MSG_SCL8 1  "Scaling factor of PAR_8 (for output)"

SCL9 1  "1.0E+7"
  ## widget = lineedit; check_type = real; check_min = 1.0
  ## activeif = PAR9 == 1

MSG_SCL9 1  "Scaling factor of PAR_9 (for output)"

! Setup stochastic parameters
! ---------------------------
STOCH_NUMBER 1  "$(STOCH_NUMBER)"
  ## widget = combobox; editable = false
  ## cards = No_setup Spacing SATCRUX ELE_file Orbit_midnight Manual
  ## activeif = RPROUT = _

MSG_STOCH_NUMBER 1  "Setup of stochastic pulses"

STOCH_MANUAL 0
  ## widget = lineedit; activeif = STOCH_NUMBER = Manual AND RPROUT = _
  # 

MSG_STOCH_MANUAL 1  "Satellite list for stochastic pulses"

STOCH_INTER 1  "12 00 00"
  ## widget = lineedit; check_type = time
  ## activeif = STOCH_NUMBER / No_setup AND STOCH_NUMBER / SATCRUX AND STOCH_NUMBER / Orbit_midnight AND STOCH_NUMBER / ELE_file AND RPROUT = _

MSG_STOCH_INTER 1  "Interval for stochastic pulses"

STOCH_FILE 0
  ## widget = selwin; activeif = STOCH_NUMBER = ELE_file; path = DIR_ELE
  ## ext = EXT_ELE; maxfiles = 1; emptyallowed = true
  # 

DESCR_STOCH_FILE 1  "File w/ epochs of stoch. pulses"

! Exclude satellites with maneuvers
! ---------------------------------
EXCLMAN 1  "0"
  ## widget = checkbox; activeif = RADIO_P == 1

MSG_EXCLMAN 1  "Exclude satellites with maneuvers"

! Use accuracy codes
! ------------------
USEAC 1  "0"
  ## widget = checkbox; activeif = RADIO_P == 1

MSG_USEAC 1  "Use accuracy codes from SP3-file"

! Exclude AC 0
! ------------
MINAC 1  "1"
  ## widget = checkbox; activeif = USEAC == 1 AND RADIO_P == 1

MSG_MINAC 1  "Exclude sat. with accuracy code 0"

! Maximum accuracy code
! ---------------------
MAXAC 1  "99"
  ## widget = spinbox; range = 0 99 1
  ## activeif = USEAC == 1 AND RADIO_P == 1

MSG_MAXAC 1  "Exclude sat. with acc. code exceeding"

! SRP compatibility mode
! (Switch betw. SRP defined by macro model file and special mode for old SLR legacy model)
! ----------------------
COMFRCFL 1  "Macromodel"
  ## widget = combobox; editable = false; cards = Macromodel SLRlegacy

MSG_COMFRCFL 1  "Mode of defining radiation pressure model"

! Solar radiation pressure
! ------------------------
SRPMODFL 1  "SELECTED"
  ## widget = combobox; cards = NONE ALL SELECTED
  ## activeif = COMFRCFL / SLRlegacy AND PLATDEF / _

MSG_SRPMODFL 1  "Solar Radiation Pressure"

SRP_G 1  "0"
  ## widget = checkbox
  ## activeif = COMFRCFL / SLRlegacy AND SRPMODFL = SELECTED

MSG_SRP_G 1  "Solar Radiation Pressure for GPS"

SRP_R 1  "0"
  ## widget = checkbox
  ## activeif = COMFRCFL / SLRlegacy AND SRPMODFL = SELECTED

MSG_SRP_R 1  "Solar Radiation Pressure for GLONASS"

SRP_E 1  "1"
  ## widget = checkbox
  ## activeif = COMFRCFL / SLRlegacy AND SRPMODFL = SELECTED

MSG_SRP_E 1  "Solar Radiation Pressure for Galileo"

SRP_S 1  "0"
  ## widget = checkbox
  ## activeif = COMFRCFL / SLRlegacy AND SRPMODFL = SELECTED

MSG_SRP_S 1  "Solar Radiation Pressure for SBAS"

SRP_C 1  "0"
  ## widget = checkbox
  ## activeif = COMFRCFL / SLRlegacy AND SRPMODFL = SELECTED

MSG_SRP_C 1  "Solar Radiation Pressure for BeiDou"

SRP_J 1  "0"
  ## widget = checkbox
  ## activeif = COMFRCFL / SLRlegacy AND SRPMODFL = SELECTED

MSG_SRP_J 1  "Solar Radiation Pressure for QZSS"

PARSHAD 1  "0"
  ## widget = checkbox; activeif = COMFRCFL / SLRlegacy AND PLATDEF / _

MSG_PARSHAD 1  "Apply partial shadow model for LEOs"

! Earth Radiation Pressure
! ------------------------
ERPMODFL 1  "Analytical"
  ## widget = combobox; editable = false; cards = None Analytical Numerical
  ## activeif = COMFRCFL / SLRlegacy AND PLATDEF / _

MSG_ERPMODFL 1  "Earth Radiation Pressure"

! Earth Radiation Pressure
! ------------------------
ALBREFFL 1  "1"
  ## widget = checkbox
  ## activeif = ERPMODFL / None AND COMFRCFL / SLRlegacy AND PLATDEF / _

MSG_ALBREFFL 1  "Earth Radiation Pressure: reflected radiation"

! Earth Radiation Pressure
! ------------------------
ALBEMIFL 1  "1"
  ## widget = checkbox
  ## activeif = ERPMODFL / None AND COMFRCFL / SLRlegacy AND PLATDEF / _

MSG_ALBEMIFL 1  "Earth Radiation Pressure: emitted radiation"

! Earth Radiation Grid Interpolation
! ------------------------
ALBINTER 1  "1"
  ## widget = checkbox
  ## activeif = ERPMODFL == Numerical AND COMFRCFL / SLRlegacy

MSG_ALBINTER 1  "Earth Radiation Grid Interpolation"

! Antenna Thrust
! --------------
ANTTHRFL 1  "1"
  ## widget = checkbox

MSG_ANTTHRFL 1  "Navigation Antenna Thrust"

! Thermal Radiation
! -----------------
TRMRADFL 1  "1"
  ## widget = checkbox; activeif = PLATDEF / _

MSG_TRMRADFL 1  "Thermal Radiation"

! Solar Panel Rotation File
!-----------------------------
SPROT 0
  ## widget = selwin; path = DIR_ATT; ext = EXT_ATT; maxfiles = 1
  ## emptyallowed = true; activeif = PLATDEF / _
  # 

DESCR_SPROT 1  "LEO Solar Panel Rotation"

! LEO: Airdrag
! ------------
AIRDRGFL 1  "0"
  ## widget = checkbox; activeif = COMFRCFL / SLRlegacy AND PLATDEF / _

MSG_AIRDRGFL 1  "LEO: Apply air drag"

! Atmosphere model
! ----------------
AIRMODE 0
  ## widget = combobox; editable = false; cards = NONE DTM2013
  ## activeif = AIRDRGFL == 1

MSG_AIRMODE 1  "Air Drag Model"

! Accommodation coefficient
! ----------------
AIRFIXC 1  "Modelled"
  ## widget = combobox; editable = false; cards = FixedCoeff Modelled
  ## activeif = AIRDRGFL == 1

MSG_AIRFIXC 1  "Accommodate airdrag coefficients"

! Accommodation coefficient
! ----------------
AIRCOEF 1  "Goodman"
  ## widget = combobox; editable = false; cards = Goodman Pilinski SESAM
  ## activeif = AIRDRGFL == 1

MSG_AIRCOEF 1  "Handling mapping precision of accommodation coef."

! Default setup of empirical parameters
! ------------------------------------------------
DEFPAR 1  "1"
  ## widget = checkbox; activeif = RADIO_E == 0

MSG_DEFPAR 1  "Choose default setup of empirical parameters"

! Default model for empirical forces (if not specified in macromodel file)
! ------------------------
DEFMODEL 1  "ECOM2"
  ## widget = combobox; editable = false; activeif = RADIO_E == 0
  ## cards = ECOM ECOM2 ECOM2-D1 ECOM2-YD1 ECOM-TB ECOM-TBM RSW DRSW

MSG_DEFMODEL 1  "Default model for empirical forces"

! Show foce modelling files
! -------------------------
SHOWFRC 1  "1"
  ## widget = checkbox

MSG_SHOWFRC 1  "Show files for force modelling"

! Show general files
! ------------------
SHOWGEN 1  "1"
  ## widget = checkbox

MSG_SHOWGEN 1  "Show all general files"

! General Constants
! -----------------
CONST 0
  ## widget = selwin; path = PTH_CONST; ext = EXT_CONST; maxfiles = 1
  # CONST

DESCR_CONST 1  "General constants"

! Solar F10.7 flux and geomagnetic index
! --------------------------------------
FLXAPFIL 0
  ## widget = selwin; path = PTH_FLXAPFIL; ext = EXT_FLXAPFIL; maxfiles = 1
  ## emptyallowed = true; activeif = FLXAPDEF == 0
  # $(FLUX)

DESCR_FLXAPFIL 1  "Solar F10.7 flux and geomagnetic index"

FLXAPDEF 1  "0"
  ## widget = checkbox

MSG_FLXAPDEF 1  "Solar flux=120, AP(:)=15 for air drag"

DTM2012DAT 0
  ## widget = selwin; path = PTH_AIRMOD; maxfiles = 1
  # dtm_2013_NF.dat

DESCR_DTM2012DAT 1  "Data file for DTM2012 model"

! Attitude file
! -------------
ATTIT 0
  ## widget = selwin; path = DIR_ATT; ext = EXT_ATT; maxfiles = 1
  ## emptyallowed = true
  # 

DESCR_ATTIT 1  "LEO attitude information"

! ERP File
! ---------
POLE 0
  ## widget = selwin; path = DIR_ERP; ext = EXT_ERP; maxfiles = 1
  # $(ORB)_$YYYSS+0

DESCR_POLE 1  "Earth rotation parameters"

! Albedo reflectivity
! -------------------
ALBREFL 0
  ## widget = selwin; path = PTH_ALBREFL; ext = EXT_ALBREFL; maxfiles = 1
  ## emptyallowed = true
  # REFLMO$M

DESCR_ALBREFL 1  "Albedo reflectivity"

! Albedo emissivity
! -----------------
ALBEMIS 0
  ## widget = selwin; path = PTH_ALBEMIS; ext = EXT_ALBEMIS; maxfiles = 1
  ## emptyallowed = true
  # EMITMO$M

DESCR_ALBEMIS 1  "Albedo emissivity"

! Ocean loading tables
! --------------------
OCNLOAD 0
  ## widget = selwin; path = DIR_BLQ; ext = EXT_BLQ; maxfiles = 1
  ## emptyallowed = true; activeif = RADIO_P == 1
  # $(BLQINF)

DESCR_OCNLOAD 1  "Ocean tidal loading"

! Atmospheric loading tables
! --------------------------
ATMLOAD 0
  ## widget = selwin; path = DIR_ATL; ext = EXT_ATL; maxfiles = 1
  ## emptyallowed = true; activeif = RADIO_P == 1
  # $(ATLINF)

DESCR_ATMLOAD 1  "Atmospheric tidal loading"

! Subdaily ERP Model
! -------------------
SUBMOD 0
  ## widget = selwin; path = PTH_SUBMOD; ext = EXT_SUBMOD; maxfiles = 1
  # $(SUBMOD)

DESCR_SUBMOD 1  "Subdaily ERP model"

! Nutation Model
! -------------------
NUTMOD 0
  ## widget = selwin; path = PTH_NUTMOD; ext = EXT_NUTMOD; maxfiles = 1
  # $(NUTMOD)

DESCR_NUTMOD 1  "Nutation model"

! Earth Potential
! ---------------
POTCOE 0
  ## widget = selwin; path = PTH_POTCOE; ext = EXT_POTCOE; maxfiles = 1
  # EGM2008_SMALL

DESCR_POTCOE 1  "Coeff. of Earth potential"

! Satellite Problems
! ------------------
SATCRUX 0
  ## widget = selwin; path = PTH_SATCRUX; ext = EXT_SATCRUX; maxfiles = 1
  # $(SATCRX)

DESCR_SATCRUX 1  "Satellite problems"

! Satellite Information
! ---------------------
SATELL 0
  ## widget = selwin; path = PTH_SATELL; ext = EXT_SATELL; maxfiles = 1
  # $(SATINF)_$(PCV)

DESCR_SATELL 1  "Satellite information"

! Local Geodetic Datum
! --------------------
DATUM 0
  ## widget = selwin; path = PTH_DATUM; ext = EXT_DATUM; maxfiles = 1
  # $(DATUM)

DESCR_DATUM 1  "Geodetic datum"

SATFILERR 1  "0"
  ## widget = checkbox; activeif = RADIO_E == 0

MSG_SATFILERR 1  "Error if not in satellite information file"

! Satellite macro model
! ---------------------
PLATDEF 0
  ## widget = selwin; path = PTH_PLATDEF; ext = EXT_PLATDEF; maxfiles = 1
  ## emptyallowed = true
  # BOXWING

DESCR_PLATDEF 1  "Satellite macro model"

! Planetary Ephemeris
! -------------------
JPLEPH 0
  ## widget = selwin; path = PTH_JPLEPH; ext = EXT_JPLEPH; maxfiles = 1
  ## emptyallowed = true
  # DE421

DESCR_JPLEPH 1  "Planetary ephemeris file"

! Solid Earth Tides File
! -----------------------
SETIDES 0
  ## widget = selwin; path = PTH_TPO; ext = EXT_TPO; maxfiles = 1
  ## emptyallowed = true
  # TIDE2000

DESCR_SETIDES 1  "Solid Earth tides file"

! Ocean Tides File
! ----------------
OTIDES 0
  ## widget = selwin; path = PTH_TID; ext = EXT_TID; maxfiles = 1
  ## emptyallowed = true
  # OT_FES2014b

DESCR_OTIDES 1  "Ocean tides file"

! Correction GPS-UTC
! ------------------
GPSUTC 0
  ## widget = selwin; path = PTH_GPSUTC; ext = EXT_GPSUTC; maxfiles = 1
  ## emptyallowed = true
  # GPSUTC

DESCR_GPSUTC 1  "GPS-UTC time difference"

! First Orbit Elements File
! -------------------------
RADIO_E 1  "0"
  ## widget = radiobutton; group = GENUPD

MSG_RADIO_E 1  "Update standard orbits"

IMPORB 0
  ## widget = selwin; activeif = RADIO_E = 1; path = DIR_ELE; ext = EXT_ELE
  ## maxfiles = 1; emptyallowed = true
  # 

DESCR_IMPORB 1  "Orbital elements, file 1"

! Second Orbit Elements File
! --------------------------
IMPORB2 0
  ## widget = selwin; activeif = RADIO_E = 1; path = DIR_ELE; ext = EXT_ELE
  ## maxfiles = 1; emptyallowed = true
  # 

DESCR_IMPORB2 1  "Orbital elements, file 2"

! Standard Orbit File
! -------------------
STDOUT 0
  ## widget = lineedit; path = DIR_STD; ext = EXT_STD
  # $(ORB)_$YYYSS+0

DESCR_STDOUT 1  "Standard orbits"

! Radiation Pressure File
! -----------------------
RPROUT 0
  ## widget = lineedit; path = DIR_RPR; ext = EXT_RPR
  # 

DESCR_RPROUT 1  "Radiation pressure coeff."

! File with Residuals
! -------------------
RESIDRS 0
  ## widget = lineedit; path = DIR_RES; ext = EXT_RES
  ## activeif = RADIO_P == 1
  # 

DESCR_RESIDRS 1  "Residual file"

! Summary File
! ------------
SUMFIL 0
  ## widget = lineedit; path = DIR_LST; ext = EXT_LST
  ## activeif = RADIO_P == 1
  # 

DESCR_SUMFIL 1  "Summary file"

SUMACC 0
  ## widget = lineedit; path = DIR_LST; ext = EXT_LST
  ## activeif = RADIO_P == 1
  # ORB_$YYYSS+0

DESCR_SUMACC 1  "Summary file for IGS-ACC"

! Plot file of residuals
! ----------------------
RESPLOT 0
  ## widget = lineedit; path = DIR_RES; ext = EXT_PLT
  ## activeif = RADIO_P == 1
  # 

DESCR_RESPLOT 1  "Residual plot file"

! Scratch Files
! -------------
AUXFIL 0
  ## widget = lineedit; path = PTH_SCR; ext = EXT_SCR; emptyallowed = false
  # ORBGEN$J

DESCR_AUXFIL 1  "Scratch file"

TABAUX 0
  ## widget = lineedit; path = PTH_SCR; ext = EXT_SC2; emptyallowed = false
  # ORBGEN$J

DESCR_TABAUX 1  "Scratch file"

DELETE_FILES 2
  "AUXFIL"
  "TABAUX"

! Program Output File
! -------------------
SYSODEF 1  "0"
  ## widget = checkbox

MSG_SYSODEF 1  "Program output"

SYSOUT 0
  ## widget = lineedit; path = DIR_OUT; ext = EXT_OUT
  ## activeif = SYSODEF == 0; emptyallowed = false
  # ORB_$YYYSS+0

DESCR_SYSOUT 1  "Program output"

! Error Message File
! ------------------
ERRMRG 1  "0"
  ## widget = checkbox

MSG_ERRMRG 1  "Error message"

SYSERR 0
  ## widget = lineedit; path = PTH_ERR; ext = EXT_ERR
  ## activeif = ERRMRG == 0; emptyallowed = false
  # ERROR

DESCR_SYSERR 1  "Error message"

! Subroutine/function debug output
! --------------------------------
DEBUG_STKLOG 0
  ## widget = lineedit; path = PTH_DBG; ext = EXT_DBG; maxfiles = 1
  ## emptyallowed = true

DESCR_DEBUG_STKLOG 1  "Debug stack log output"

DEBUG_SUMMARY 0
  ## widget = lineedit; path = PTH_DBG; ext = EXT_DBG; maxfiles = 1
  ## emptyallowed = true

DESCR_DEBUG_SUMMARY 1  "Debug summary output"

DEBUG_INTERVAL 1  "00 01 00"
  ## widget = lineedit; check_type = time

MSG_DEBUG_INTERVAL 1  "Interval for intermediate debug summary"

! Print Residuals
! ---------------
PRTRESID 1  "NO"
  ## widget = combobox; editable = true; cards = NO LAST ALL
  ## activeif = RADIO_P == 1

MSG_PRTRESID 1  "PRINT RESIDUALS"

! Print Residuals in RSW Coordinates
! ----------------------------------
RESSYS 1  "1"
  ## widget = checkbox; activeif = PRTRESID / NO

MSG_RESSYS 1  "Print Presiduals in RSW Coordinates"

! Number of Iterations
! --------------------
NUMITER 1  "2"
  ## widget = spinbox; range = 1 40 1; activeif = RADIO_P == 1

MSG_NUMITER 1  "Number of iterations"

! Polynomial Degree (max of range corresponds to MAXQ1 in ORBGEN.f)
! -----------------
POLDEGR 1  "10"
  ## widget = spinbox; range = 1 20 1

MSG_POLDEGR 1  "EQUATION OF MOTION: Polynomial degree"

! Interval Length
! ---------------
LENINTER 1  "01 00 00"
  ## widget = lineedit; emptyallowed = false; check_type = time

MSG_LENINTER 1  "EQUATION OF MOTION: Length of interval"

! Polynomial Degree (Variational Eq.)
! (max of range corresponds to MAXQ1 in ORBGEN.f)
! -----------------------------------
VARPOLDG 1  "12"
  ## widget = spinbox; range = 1 20 1

MSG_VARPOLDG 1  "VARIATIONAL EQUATIONS: Polynomial degree"

! Interval Length (Variational Eq.)
! ---------------------------------
VARLNINT 1  "06 00 00"
  ## widget = lineedit; emptyallowed = false; check_type = time

MSG_VARLNINT 1  "VARIATIONAL EQUATIONS: Length of interval"

! Additional Variational Eq.
! --------------------------
ADDVAR 1  "0"
  ## widget = spinbox; range = 0 1 1

MSG_ADDVAR 1  "VARIATIONAL EQUATIONS: Additional sets"

! Use extended RPR format
! -----------------------
RPRFRM 1  "0"
  ## widget = checkbox

MSG_RPRFRM 1  "Use extended RPR Format"

! Degree of Earth Potential Model
! -------------------------------
MXPOTDEG 1  "12"
  ## widget = spinbox; range = 2 150 1

MSG_MXPOTDEG 1  "Earth potential degree"

! Time Frame
! ----------
TIMFRAME 1  "GPS"
  ## widget = combobox; editable = false; cards = GPS UTC

MSG_TIMFRAME 1  "Time frame"

! Apply CMC correction for OTL
! ----------------------------
CMCYN_O 1  "1"
  ## widget = checkbox; activeif = RADIO_P == 1 AND OCNLOAD / _

MSG_CMCYN_O 1  "Apply CMC correction for OTL"

! Apply CMC correction for ATL
! ----------------------------
CMCYN_A 1  "0"
  ## widget = checkbox; activeif = RADIO_P == 1 AND ATMLOAD / _

MSG_CMCYN_A 1  "Apply CMC correction for ATL"

! Apply Antenna Offsets
! ---------------------
ANTOFF 1  "0"
  ## widget = checkbox

MSG_ANTOFF 1  "Apply antenna offset"

! Degree of Ocean Tides Model
! ---------------------------
MXOCTI 1  "4"
  ## widget = spinbox; range = 4 150 1

MSG_MXOCTI 1  "Ocean tides degree"

! Satellite/GNSS Selection
! ------------------------
SATSELECT 1  "SYSTEM_WISE"
  ## widget = combobox; editable = false; activeif = RADIO_E == 0
  ## cards = ALL_SATELLITES SYSTEM_WISE SATELLITE_LIST

MSG_SATSELECT 1  "Select satellites to be processed"

USE_G 1  "1"
  ## widget = checkbox; activeif = RADIO_E == 0 AND SATSELECT == SYSTEM_WISE

MSG_USE_G 1  "Consider satellites from GPS"

USE_R 1  "1"
  ## widget = checkbox; activeif = RADIO_E == 0 AND SATSELECT == SYSTEM_WISE

MSG_USE_R 1  "Consider satellites from GLONASS"

USE_E 1  "1"
  ## widget = checkbox; activeif = RADIO_E == 0 AND SATSELECT == SYSTEM_WISE

MSG_USE_E 1  "Consider satellites from GALILEO"

USE_C 1  "1"
  ## widget = checkbox; activeif = RADIO_E == 0 AND SATSELECT == SYSTEM_WISE

MSG_USE_C 1  "Consider satellites from BEIDOU"

USE_J 1  "0"
  ## widget = checkbox; activeif = RADIO_E == 0 AND SATSELECT == SYSTEM_WISE

MSG_USE_J 1  "Consider satellites from QZSS"

USE_S 1  "1"
  ## widget = checkbox; activeif = RADIO_E == 0 AND SATSELECT == SYSTEM_WISE

MSG_USE_S 1  "Consider satellites from SBAS"

USESAT 1  "EXCLUDED"
  ## widget = combobox; editable = false; cards = INCLUDED EXCLUDED
  ## activeif = RADIO_E == 0 AND SATSELECT == SATELLITE_LIST

MSG_USESAT 1  "The satellites in the following list will be"

SATLST 0
  ## widget = lineedit
  ## activeif = RADIO_E == 0 AND SATSELECT == SATELLITE_LIST
  # 

MSG_SATLST 1  "Satellite list"

! Arc(s) Definition
! -----------------
NUMARCS 1  "1"
  ## widget = lineedit; check_type = integer; check_min = 1

MSG_NUMARCS 1  "Number of arcs within the time window"

! Arc(s) Definition
! -----------------
ARCINT 0
  ## widget = lineedit; check_type = real; check_min = 0

MSG_ARCINT 1  "LENGTH OF TIME INTERVAL"

RADIO_1 1  "1"
  ## widget = radiobutton; group = DUMMY
  ## radiokeys = SESSION_YEAR SESSION_STRG

MSG_RADIO_1 1  "Obs. window defined by year and session identifier"

RADIO_2 1  "0"
  ## widget = radiobutton; group = DUMMY

MSG_RADIO_2 1  "Obs. window defined by start and end times"

SESSION_YEAR 0
  ## widget = lineedit; multilineallowed = true; emptyallowed = false
  ## activeif = RADIO_1 == 1
  # $Y+-

MSG_SESSION_YEAR 1  "Year for sessions def. the time window"

SESSION_STRG 0
  ## widget = lineedit; multilineallowed = true; emptyallowed = false
  ## activeif = RADIO_1 == 1
  # $S+-

MSG_SESSION_STRG 1  "Sessions defining the time window"

STADAT 0
  ## widget = lineedit; activeif = RADIO_2 = 1; check_type = date
  # $YMD_STR+0

MSG_STADAT 1  "Start of time window (year month day)"

STATIM 1  "00 00 00"
  ## widget = lineedit; emptyallowed = false
  ## activeif = RADIO_2 = 1 AND STADAT / _; check_type = time

MSG_STATIM 1  "Start of time window (hour min. sec.)"

ENDDAT 0
  ## widget = lineedit; activeif = RADIO_2 = 1; check_type = date
  # $YMD_STR+0

MSG_ENDDAT 1  "End of time window (year month day)"

ENDTIM 1  "23 59 59"
  ## widget = lineedit; emptyallowed = false
  ## activeif = RADIO_2 = 1 AND ENDDAT / _; check_type = time

MSG_ENDTIM 1  "End of time window (hour min. sec.)"

! Title
! -----
TITLE 0
  ## widget = lineedit
  # RNX2SNX_$YYYSS+0: Generate GNSS standard orbit

MSG_TITLE 1  "Title line"


# BEGIN_PANEL NO_CONDITION #####################################################
# CREATE/UPDATE STANDARD ORBITS - ORBGEN 1: Input Files                        #
#                                                                              #
# GENERAL FILES                                                                #
#   Show files for force modelling     > % <                                   # SHOWFRC
#   Show all general files             > % <                                   # SHOWGEN
#                                                                              #
# INPUT FILES                                                                  #
# > % < Start with precise orbits      > %%%%%%%%%%%% <                        # RADIO_P PREFIL
#       Use with general ERP file      > % <                                   # GENPOLE
# > % < Update standard orbit                                                  # RADIO_E
#          Orbital elements, file 1    > %%%%%%%%%%%% <                        # IMPORB
#          Orbital elements, file 2    > %%%%%%%%%%%% <                        # IMPORB2
#                                                                              #
#   Earth rotation parameters          > %%%%%%%%%%%% <                        # POLE
#   Ocean tidal loading                > %%%%%%%%%%%% <     (for CMC)          # OCNLOAD
#   Atmospheric tidal loading          > %%%%%%%%%%%% <     (for CMC)          # ATMLOAD
#                                                                              #
# END_PANEL ####################################################################


# BEGIN_PANEL SHOWFRC = 1 ######################################################
# ORBGEN 1.1: Files for Force Modelling                                        #
#                                                                              #
# INPUT FILES FOR GRAVITATIONAL FORCE MODELLING                                #
#   Coeff. of Earth potential    > %%%%%%%%%%%% <                              # POTCOE
#   Solid Earth tides            > %%%%%%%%%%%% <                              # SETIDES
#   Ocean tides file             > %%%%%%%%%%%% <                              # OTIDES
#   Planetary ephemeris          > %%%%%%%%%%%% <                              # JPLEPH
#                                                                              #
# INPUT FILES FOR NON-GRAVITATIONAL FORCE MODELLING                            #
#   Attitude for LEO satellites  > %%%%%%%%%%%% <                              # ATTIT
#   Satellite macro model        > %%%%%%%%%%%% <                              # PLATDEF
#   Albedo reflectivity          > %%%%%%%%%%%% <                              # ALBREFL
#   Albedo emissivity            > %%%%%%%%%%%% <                              # ALBEMIS
#                                                                              #
# END_PANEL ####################################################################


# BEGIN_PANEL SHOWGEN = 1 ######################################################
# ORBGEN 1.2: General Files                                                    #
#                                                                              #
# GENERAL INPUT FILES                                                          #
#   General constants        > %%%%%%%%%%%% <                                  # CONST
#   Satellite problems       > %%%%%%%%%%%% <                                  # SATCRUX
#   Geodetic datum           > %%%%%%%%%%%% <                                  # DATUM
#   Satellite information    > %%%%%%%%%%%% <                                  # SATELL
#                            > % < Error if not in satellite information file  # SATFILERR
#   Subdaily ERP model       > %%%%%%%%%%%% <                                  # SUBMOD
#   Nutation model           > %%%%%%%%%%%% <                                  # NUTMOD
#   GPS-UTC time difference  > %%%%%%%%%%%% <                                  # GPSUTC
#   F10.7 flux index         > %%%%%%%%%%%% < > % <Use defaults (FLX=120,AP=15)# FLXAPFIL FLXAPDEF
#                                                                              #
# MENU SETTINGS                                                                #
#   Selected campaign        > %%%%%%%%%%%%%%%%%%%%%%%%%%%%%%%%%%%%%%%%%%%% <  # CAMPAIGN
#   Selected session           year> %%%% <  session> %%%% <                   # YR4_INFO SES_INFO
#   Session table            > %%%%%%%%%%%%%%%%%%%%%%%%%%%%%%%%%%%%%%%%%%%% <  # SESSION_TABLE
#                                                                              #
# TEMPORARY FILES                                                              #
#   Scratch files            > %%%%%%%%%%%% <            > %%%%%%%%%%%% <      # AUXFIL  TABAUX
#                                                                              #
# END_PANEL ####################################################################


# BEGIN_PANEL NO_CONDITION #####################################################
# ORBGEN 2: Result and Output Files                                            #
#                                                                              #
#                                                                              #
# RESULT FILES                                                                 #
#   Standard orbits          > %%%%%%%%%%%% <                                  # STDOUT
#   Radiation pressure coeff.> %%%%%%%%%%%% <                                  # RPROUT
#   Residual file            > %%%%%%%%%%%% <                                  # RESIDRS
#                                                                              #
# OUTPUT FILES                                                                 #
#   Summary file             > %%%%%%%%%%%% <                                  # SUMFIL
#   Summary file for IGS-ACC > %%%%%%%%%%%% <                                  # SUMACC
#   Plot file of residuals   > %%%%%%%%%%%% <                                  # RESPLOT
#                                                                              #
# GENERAL OUTPUT FILES                                                         #
#   Program output         > % < use ORBGEN.Lnn            or > %%%%%%%%%%%% < # SYSODEF SYSOUT
#   Error messages         > % < merged to program output  or > %%%%%%%%%%%% < # ERRMRG SYSERR
#                                                                              #
# END_PANEL ####################################################################


# BEGIN_PANEL NO_CONDITION #####################################################
# ORBGEN 3.1: General Options                                                  #
#                                                                              #
# TITLE > %%%%%%%%%%%%%%%%%%%%%%%%%%%%%%%%%%%%%%%%%%%%%%%%%%%%%%%%%%%%%%%% <   # TITLE
#                                                                              #
# TIME FRAME, POTENTIAL AND TIDAL CORRECTIONS                                  #
#   Time frame                   > %%%% <                                      # TIMFRAME
#   Earth potential degree       > %%%% <                                      # MXPOTDEG
#   Ocean tides max degree       > %%%% <                                      # MXOCTI
#   Apply CMC correction   OTL:  > % <              ATL: > % <                 # CMCYN_O CMCYN_A
#   Apply antenna offset         > % <                                         # ANTOFF
#                                                                              #
# SATELLITE SELECTION            >  %%%%%%%%%%%%%%%% <                         # SATSELECT
#          > % < GPS             > % < GLONASS         > % < Galileo           # USE_G USE_R USE_E
#          > % < SBAS            > % < BeiDou          > % < QZSS              # USE_S USE_C USE_J
#                                                                              #
#   The satellites in the following list will be     > %%%%%%%%%%%% <          # USESAT
#   Satellite list > %%%%%%%%%%%%%%%%%%%%%%%%%%%%%%%%%%%%%%%%%%%%%%%%%%% <     # SATLST
#                                                                              #
# EXPERIMENTAL OPTIONS                                                         #
#   True attitude modelling of satellites                > % <                 # TRUEATTI
#   Print beta angle and attitude switch info to STDOUT  > % <                 # BETAOUT
#   Print Yaw angle to SYSOUT file                       > % <                 # PRINTYAW
#                                                                              #
# END_PANEL ####################################################################


# BEGIN_PANEL NO_CONDITION #####################################################
# ORBGEN 3.2: A priori Radiation Pressure Model                                #
#                                                                              #
# NON-CONSERVATIVE FORCES                                                      #
#   Solar radiation pressure       > %%%%%%%%%% <                              # SRPMODFL
#                                  > % < GPS    > % < GLONASS   > % < Galileo  # SRP_G SRP_R SRP_E
#                                  > % < SBAS   > % < BeiDou    > % < QZSS     # SRP_S SRP_C SRP_J
#   Apply partial shadow for LEO   > % <                                       # PARSHAD
#   Earth Radiation Pressure       > %%%%%%%%%% <                              # ERPMODFL
#     Reflected radiation          > % <                                       # ALBREFFL
#     Emitted@@ radiation          > % <                                       # ALBEMIFL
#     Numerical interpolation      > % <                                       # ALBINTER
#   Navigation Antenna Thrust      > % <                                       # ANTTHRFL
#   Thermal radiation              > % <                                       # TRMRADFL
#     (defined by macromodel)                                                  #
#   Rotation of solar panel        > %%%%%%%%%%%% <          Only for Jason-2/3# SPROT
#   Atmospheric force for LEO      > % <                                       # AIRDRGFL
#                                                                              #
# END_PANEL ####################################################################


# BEGIN_PANEL AIRDRGFL = 1 #####################################################
# ORBGEN 3.2.1: Atmospheric Force Model                                        #
#                                                                              #
#  Air density model               > %%%%%%%%%% <                              # AIRMODE
#  Drag coefficient                > %%%%%%%%%% <                              # AIRFIXC
#  Accommodation coefficient       > %%%%%%%%%% <                              # AIRCOEF
#                                                                              #
# END_PANEL ####################################################################


# BEGIN_PANEL NO_CONDITION #####################################################
# ORBGEN 3.3: Numerical Integration                                            #
#                                                                              #
# PRINT RESIDUALS           > %%%%%% <                                         # PRTRESID
#   In RSW Coordinates      > % <                                              # RESSYS
#                                                                              #
# NUMERICAL INTEGRATION                                                        #
#   Number of iterations    > %%% <                                            # NUMITER
#                                                                              #
# EQUATION OF MOTION                                                           #
#   Polynomial degree       > %%% <                                            # POLDEGR
#   Length of interval      > %%%%%%%% <  (hh mm ss)                           # LENINTER
#                                                                              #
# VARIATIONAL EQUATIONS                                                        #
#   Polynomial degree       > %%% <                                            # VARPOLDG
#   Length of interval      > %%%%%%%% <  (hh mm ss)                           # VARLNINT
#   Additional sets         > %%% <       (only relevant for LEO orbits)       # ADDVAR
#   Use extended RPR Format > % <         (only intended for LEO orbits)       # RPRFRM
#                                                                              #
# END_PANEL ####################################################################


# BEGIN_PANEL RADIO_E = 0 ######################################################
# ORBGEN 4: Parameter Selection                                                #
#                                                                              #
# DYNAMICAL ORBIT PARAMETERS                                                   #
#   Apart from six osculating elements, estimate the following parameters:     #
#                                                                              #
#   Default model                                > %%%%%%%%%% <                # DEFMODEL
#   Model-specific (default) setup of empirical parameters > % <               # DEFPAR
#                                                                              #
#   Manual selection of parameters and their scaling (for output only):        #
#   PAR1 > % < > %%%%%% <    PAR4 > % < > %%%%%% <    PAR7 > % < > %%%%%% <    # PAR1 SCL1 PAR4 SCL4 PAR7 SCL7
#   PAR2 > % < > %%%%%% <    PAR5 > % < > %%%%%% <    PAR8 > % < > %%%%%% <    # PAR2 SCL2 PAR5 SCL5 PAR8 SCL8
#   PAR3 > % < > %%%%%% <    PAR6 > % < > %%%%%% <    PAR9 > % < > %%%%%% <    # PAR3 SCL3 PAR6 SCL6 PAR9 SCL9
#                                                                              #
#  MODEL  ECOM   ECOM2  ECOM2-D1  ECOM2-YD1  ECOM-TB   ECOM-TBM  RSW    DRSW   #
#                                                                              #
#  PAR1   E30    E30    E30       E30        T30C1b    T30C1b    L30    E30    #
#  PAR2   E20    E20    E20       E20        T20S3b    T20S3b    L20    L20    #
#  PAR3   E10    E10    E10       E10        T1S2uC1b  T1S2uC1b  L10    L10    #
#  PAR4   E3C1u  E3C2u  E3C2u     E3C2u      T3C2uC1b  T3C2uC1b  L3C1u  L3C1u  #
#  PAR5   E2C1u  E3C4u  E3C1u     E3C1u      T3C4uC1b  T3C4uC1b  L2C1u  L2C1u  #
#  PAR6   E1C1u  E1C1u  E1C1u     E1C1u      T2C2uS2b  T2C2uS2b  L1C1u  L1C1u  #
#  PAR7   E3S1u  E3S2u  E3S2u     E3S2u      T3S2uC1b  T3S2uC1b  L3S1u  L3S1u  #
#  PAR8   E2S1u  E3S4u  E3S1u     E3S1u      T3S4uC1b  T3S4uC1b  L2S1u  L2S1u  #
#  PAR9   E1S1u  E1S1u  E1S1u     E1S1u      T2S2uS2b  T2S2uS2b  L1S1u  L1S1u  #
#                                                                              #
#  E3, E2, E1 axes correspond to D, Y, B, respectively                         #
#  L3, L2, L1 axes correspond to R, S, W, respectively                         #
#                                                                              #
# END_PANEL ####################################################################


# BEGIN_PANEL RADIO_E = 0 ######################################################
# ORBGEN 5: Stochastic Pulses and Satellite Accuracy Codes                     #
#                                                                              #
# STOCHASTIC PULSES IN (L3, L2, L1)-DIRECTIONS                                 #
#   Set up based on                             > %%%%%%%%%%%%%%%% <           # STOCH_NUMBER
#   List of satellites                          > %%%%%%%%%%%%%%%%%%% <        # STOCH_MANUAL
#   Parameter spacing                           > %%%%%%%% <(hh mm ss)         # STOCH_INTER
#                                                                              #
#   Orbital elements file                       > %%%%%%%%%%%%%%% <            # STOCH_FILE
#     (only used to provide epochs of stochastic pulses)                       #
#                                                                              #
# SATELLITE OPTIONS                                                            #
#   Exclude satellites with maneuvers           > % <                          # EXCLMAN
#   Use accuracy codes from SP3-file            > % <                          # USEAC
#   Exclude sat. with accuracy code 0           > % <                          # MINAC
#   Exclude sat. with acc. code exceeding       > %% <                         # MAXAC
#                                                                              #
# END_PANEL ####################################################################


# BEGIN_PANEL RADIO_E = 0 ######################################################
# ORBGEN 6: Orbital Arc Definition                                             #
#                                                                              #
# ORBITAL ARC DEFINITION                                                       #
#   Number of arcs within the time window         > %%% <                      # NUMARCS
#                                                                              #
#   Time window to be covered by the standard orbits                           #
#                                                                              #
#   > % < Defined by Year and Session identifier                               # RADIO_1
#         Year > %%%% <     Session > %%%% <                                   # SESSION_YEAR SESSION_STRG
#                                                                              #
#                                                                              #
#   > % < Defined by Start and End times                                       # RADIO_2
#                 yyyy mm dd     hh mm ss           yyyy mm dd     hh mm ss    #
#         Start > %%%%%%%%%% < > %%%%%%%% <   End > %%%%%%%%%% < > %%%%%%%% <  # STADAT STATIM ENDDAT ENDTIM
#                                                                              #
# END_PANEL ####################################################################


# BEGIN_PANEL RADIO_E = 1 ######################################################
# ORBGEN 7: Selection of Orbital Elements                                      #
#                                                                              #
# SELECTION OF ORBITAL ELEMENTS   > %%%% <                                     # NEWOLD
#                                                                              #
# LENGTH OF TIME INTERVAL         > %%%% < days                                # ARCINT
#                                                                              #
# END_PANEL ####################################################################
