
! Environment Variables
! ---------------------
ENVIRONMENT 0
  ## widget = initmenu; pointer = ENVIR_LIST

CAMPAIGN 1  "./DUMMY"
  ## widget = initmenu; pointer = ACTIVE_CAMPAIGN

SESSION_TABLE 1  "${PAN}/SESSIONS.SES"
  ## widget = initmenu; pointer = SESSION_TABLE

DESCR_SESSION_TABLE 1  "Session table"

YR4_INFO 0
  ## widget = comment
  # $Y+0

SES_INFO 0
  ## widget = comment
  # $S+0

USR_INFO 1  "${USER}"
  ## widget = comment

! -------------------------------------------------------------------------
! Show general files
! ------------------
SHOWGEN 1  "1"
  ## widget = checkbox

MSG_SHOWGEN 1  "Show all general files"

! Pole Offset Coefficients
! ------------------------
OFFFIL 0
  ## widget = selwin; path = PTH_OFFFIL; ext = EXT_OFFFIL; maxfiles = 1
  ## emptyallowed = true
  # POLOFF

DESCR_OFFFIL 1  "Pole offset coefficients"

! Leap Second File
! ----------------
GPSUTC 0
  ## widget = selwin; path = PTH_GPSUTC; ext = EXT_GPSUTC; maxfiles = 1
  # GPSUTC

DESCR_GPSUTC 1  "GPS-UTC time difference"

! Input ERP Files Bernese Format
! -------------------------------
ERPFIL 0
  ## widget = selwin; path = DIR_ERP; ext = EXT_ERP; maxfiles = 999
  ## emptyallowed = true

MSG_ERPFIL 1  "Bernese formatted ERP files"

ERPFIL_TXT_COL_1 1  "Input Bernese ERP files"

! Input ERP Files Foreign Format
! -------------------------------
IEPFIL 0
  ## widget = selwin; path = DIR_IEP; ext = EXT_IEP; maxfiles = 999
  ## emptyallowed = true
  # $(ORB)_$YYYD+-

MSG_IEPFIL 1  "Foreign formatted ERP files"

IEPFIL_TXT_COL_1 1  "Input IERS ERP files"

! Output ERP File
! ----------------
OUTFIL 0
  ## widget = lineedit; path = DIR_ERP; ext = EXT_ERP; maxfiles = 1
  # $(ORB)_$YYYSS+0

DESCR_OUTFIL 1  "Bernese formatted ERP file (out)"

! Program Output File
! -------------------
SYSODEF 1  "0"
  ## widget = checkbox

MSG_SYSODEF 1  "Program output"

SYSOUT 0
  ## widget = lineedit; path = DIR_OUT; ext = EXT_OUT
  ## activeif = SYSODEF == 0; emptyallowed = false
  # POL_$YYYSS+0

DESCR_SYSOUT 1  "Program output"

! Error Message File
! ------------------
ERRMRG 1  "0"
  ## widget = checkbox

MSG_ERRMRG 1  "Error message"

SYSERR 0
  ## widget = lineedit; path = PTH_ERR; ext = EXT_ERR
  ## activeif = ERRMRG == 0; emptyallowed = false
  # ERROR

DESCR_SYSERR 1  "Error message"

! Subroutine/function debug output
! --------------------------------
DEBUG_STKLOG 0
  ## widget = lineedit; path = PTH_DBG; ext = EXT_DBG; maxfiles = 1
  ## emptyallowed = true

DESCR_DEBUG_STKLOG 1  "Debug stack log output"

DEBUG_SUMMARY 0
  ## widget = lineedit; path = PTH_DBG; ext = EXT_DBG; maxfiles = 1
  ## emptyallowed = true

DESCR_DEBUG_SUMMARY 1  "Debug summary output"

DEBUG_INTERVAL 1  "00 01 00"
  ## widget = lineedit; check_type = time

MSG_DEBUG_INTERVAL 1  "Interval for intermediate debug summary"

! Title for Result Files
! ----------------------
TITLE 0
  ## widget = lineedit
  # RNX2SNX_$YYYSS+0: Extract ERP information

MSG_TITLE 1  "Title line"

! Nutation Model
! --------------
NUTMOD 0
  ## widget = selwin; path = PTH_NUTMOD; ext = EXT_NUTMOD; maxfiles = 1
  ## emptyallowed = true
  # $(NUTMOD)

NUTMOD_TXT_COL_1 1  "Nutation Model"

MSG_NUTMOD 1  "Nutation model"

! Subdaily ERP Model
! -------------------
SUBMOD 0
  ## widget = selwin; path = PTH_SUBMOD; ext = EXT_SUBMOD; maxfiles = 1
  ## emptyallowed = true
  # $(SUBMOD)

DESCR_SUBMOD 1  "Subdaily ERP model"

! Meanpole
! --------
MEANPL 1  "$(MEANPL)"
  ## widget = combobox; editable = false
  ## cards = IERS1996 IERS2000 IERS2010 IERS2010_v1.2.0

MSG_MEANPL 1  "Meanpole model"

! Values of IERS Bulletin B
! -------------------------
NDAYS 1  "1"
  ## widget = combobox; editable = false; cards = 1 5

MSG_NDAYS 1  "Use 1 or 5 day values"

! ERP Rates
! ---------
USERATE 1  "0"
  ## widget = checkbox

MSG_USERATE 1  "Use ERP rates"

! Allow double epochs
! -------------------
DBLEPO 1  "0"
  ## widget = checkbox; activeif = USERATE == 0

MSG_DBLEPO 1  "Allow double epochs"

! Include Nutation Offsets
! ------------------------
NUTOFF 1  "0"
  ## widget = checkbox

MSG_NUTOFF 1  "Include nutation offsets"

! Use Window
! ----------
IWIN 1  "1"
  ## widget = checkbox

MSG_IWIN 1  "Use time window"

! Observation Window
! ------------------
RADIO_1 1  "1"
  ## widget = radiobutton; group = WINDOW
  ## radiokeys = SESSION_YEAR SESSION_STRG

MSG_RADIO_1 1  "Defined by Year and Session identifier"

RADIO_2 1  "0"
  ## widget = radiobutton; group = WINDOW

MSG_RADIO_2 1  "Defined by start and end times"

SESSION_YEAR 0
  ## widget = lineedit; multilineallowed = true; emptyallowed = false
  ## activeif = RADIO_1 == 1
  # $Y+-

MSG_SESSION_YEAR 1  "Year for sessions def. the time window"

SESSION_STRG 0
  ## widget = lineedit; multilineallowed = true; emptyallowed = false
  ## activeif = RADIO_1 == 1
  # $S+-

MSG_SESSION_STRG 1  "Sessions defining the time window"

STADAT 0
  ## widget = lineedit; activeif = RADIO_2 = 1; check_type = date
  # $YMD_STR+0

MSG_STADAT 1  "Start of time window (year month day)"

STATIM 1  "00 00 00"
  ## widget = lineedit; emptyallowed = false
  ## activeif = RADIO_2 = 1 AND STADAT / _; check_type = time

MSG_STATIM 1  "Start of time window (hour min. sec.)"

ENDDAT 0
  ## widget = lineedit; activeif = RADIO_2 = 1; check_type = date
  # $YMD_STR+0

MSG_ENDDAT 1  "End of time window (year month day)"

ENDTIM 1  "23 59 59"
  ## widget = lineedit; emptyallowed = false
  ## activeif = RADIO_2 = 1 AND ENDDAT / _; check_type = time

MSG_ENDTIM 1  "End of time window (hour min. sec.)"


# BEGIN_PANEL NO_CONDITION #####################################################
# CONVERT IERS ERP FILES TO BERNESE FORMAT - POLUPD 1: Input/Output Files      #
#                                                                              #
# GENERAL FILES                                                                #
#   Show all general files               > % <                                 # SHOWGEN
#                                                                              #
# INPUT FILES                                                                  #
#   Bernese formatted ERP files          > %%%%%%%%%%%% <                      # ERPFIL
#   Foreign formatted ERP files          > %%%%%%%%%%%% <                      # IEPFIL
#                                                                              #
# RESULT FILE                                                                  #
#   Bernese formatted ERP file (out)     > %%%%%%%%%%%% <                      # OUTFIL
#                                                                              #
# GENERAL OUTPUT FILES                                                         #
#   Program output         > % < use POLUPD.Lnn           or  > %%%%%%%%%%%% < # SYSODEF SYSOUT
#   Error messages         > % < merged to program output or  > %%%%%%%%%%%% < # ERRMRG SYSERR
#                                                                              #
# END_PANEL ####################################################################


# BEGIN_PANEL SHOWGEN = 1 ######################################################
# POLUPD 1.1: General Files                                                    #
#                                                                              #
# GENERAL INPUT FILES                                                          #
#   Pole offset coefficients   > %%%%%%%%%% <                                  # OFFFIL
#   GPS-UTC time difference    > %%%%%%%%%% <                                  # GPSUTC
#                                                                              #
# MENU SETTINGS                                                                #
#   Selected campaign          > %%%%%%%%%%%%%%%%%%%%%%%%%%%%%%%%%%%%%%%%%%%% <# CAMPAIGN
#   Selected session             year> %%%% <  session> %%%% <                 # YR4_INFO SES_INFO
#   Session table              > %%%%%%%%%%%%%%%%%%%%%%%%%%%%%%%%%%%%%%%%%%%% <# SESSION_TABLE
#                                                                              #
# END_PANEL ####################################################################


# BEGIN_PANEL NO_CONDITION #####################################################
# POLUPD 2: Options                                                            #
#                                                                              #
# HEADER INFORMATION                                                           #
#   Title  > %%%%%%%%%%%%%%%%%%%%%%%%%%%%%%%%%%%%%%%%%%%%%%%%%%%%%%%%%%%% <    # TITLE
#   Nutation model             > %%%%%%%%%%%% <                                # NUTMOD
#   Subdaily ERP model         > %%%%%%%%%%%% <                                # SUBMOD
#   Meanpole model             > %%%%%%%%%%%%%% <                              # MEANPL
#                                                                              #
# BULLETIN B AS INPUT                                                          #
#   Use 1 or 5 day values      > %% <                                          # NDAYS
#                                                                              #
# OPTIONS                                                                      #
#   Use ERP rates              > % <                                           # USERATE
#   Allow double epochs        > % <                                           # DBLEPO
#   Include nutation offsets   > % <                                           # NUTOFF
#   Use time window            > % <                                           # IWIN
# END_PANEL ####################################################################


# BEGIN_PANEL IWIN = 1 #########################################################
# POLUPD 3: Time Window                                                        #
#                                                                              #
# TIME WINDOW                                                                  #
#                                                                              #
#   > % < Defined by Year and Session identifier                               # RADIO_1
#         Year  > %%%% <    Session > %%%% <                                   # SESSION_YEAR SESSION_STRG
#                                                                              #
#   > % < Defined by Start and End times                                       # RADIO_2
#                 yyyy mm dd     hh mm ss           yyyy mm dd     hh mm ss    #
#         Start > %%%%%%%%%% < > %%%%%%%% <   End > %%%%%%%%%% < > %%%%%%%% <  # STADAT STATIM ENDDAT ENDTIM
#                                                                              #
# END_PANEL ####################################################################
